interface ITimer {
	extern integer $int$;
	in void start(integer s);
	in void cancel();
	out void timeout();
	
	behaviour {
		enum State { Idle, Running };
		State state = State.Idle;
		
		on start: {
			[state == State.Idle] state = State.Running;
			[state == State.Running] illegal;
		}
		
		on cancel: {
			[state == State.Idle] {}
			[state == State.Running] state = State.Idle;
		}
		
		on inevitable: {
			[state == State.Running] {
				timeout;
				state = State.Idle;
			}
		}
	}
}